#=======================================================
# FHI-aims file: geometry.in.fractional
# Created using the Atomic Simulation Environment (ASE)
# Tue Nov  5 17:38:16 2019
#=======================================================
lattice_vector 6.2248805000000003 0.0000000000000000 -0.0000000000000000 
lattice_vector 0.0000000000000000 8.6909060399999998 0.0000000000000000 
lattice_vector 0.0000000000000000 0.0000000000000000 6.1159445300000002 
atom_frac -0.0000000000000000 0.0000000000000000 0.0000000000000000 Ca
atom_frac 0.5000000000000000 0.0000000000000000 0.5000000008175352 Ca
atom_frac 0.0000000000000000 0.5000000000000000 -0.0000000000000000 Ca
atom_frac 0.5000000000000000 0.5000000000000000 0.5000000008175352 Ca
atom_frac 1.0000000000000000 0.2500000000000000 1.0000000000000000 F
atom_frac 0.5000000000000000 0.7500000000000000 0.5000000000000000 F
atom_frac 0.00 0.75 0.00 F
atom_frac 0.50 0.25 0.50 F
atom_frac 0.25 0.50 0.25 F
atom_frac 0.25 0.50 0.75 F
atom_frac 0.75 1.00 0.75 F
atom_frac 0.75 0.00 0.25 F
atom_frac 0.75 0.50 0.75 F
atom_frac 0.75 0.50 0.25 F
atom_frac 0.25 0.00 0.25 F
atom_frac 0.25 1.00 0.75 F
atom_frac 0.00 0.25 0.50 K
atom_frac 0.50 0.75 1.00 K
atom_frac 1.00 0.75 0.50 K
atom_frac 0.50 0.25 0.00 K
