#=======================================================
# FHI-aims file: geometry.in
# Created using the Atomic Simulation Environment (ASE)
# Sat Mar 23 21:37:11 2019
#=======================================================
lattice_vector 6.2343596899999998 0.0000000000000000 0.0000000000000000 
lattice_vector 0.0000000000000000 8.5200990900000004 0.0000000000000000 
lattice_vector 0.0000000000000000 0.0000000000000000 5.9172057200000001 
atom_frac 0.0000000000000000 0.0000000000000000 0.0000000000000000 Ca
atom_frac 0.5000000000000000 0.0000000000000000 0.5000000000000000 Ca
atom_frac 0.0000000000000000 0.5000000000000000 0.0000000000000000 Ca
atom_frac 0.5000000000000000 0.5000000000000000 0.5000000000000000 Ca
atom_frac 0.9684990500000000 0.2500000000000000 0.9098075900000000 F
atom_frac 0.5315009500000000 0.7499999999999998 0.4098075900000000 F
atom_frac 0.0315009500000000 0.7499999999999998 0.0901924100000000 F
atom_frac 0.4684990500000000 0.2500000000000000 0.5901924100000000 F
atom_frac 0.2986108100000000 0.4529055200000000 0.1967569700000000 F
atom_frac 0.2013891900000000 0.5470944799999999 0.6967569700000000 F
atom_frac 0.7013891900000000 0.9529055200000000 0.8032430300000000 F
atom_frac 0.7986108100000000 0.0470944800000000 0.3032430300000000 F
atom_frac 0.7013891900000000 0.5470944799999999 0.8032430300000000 F
atom_frac 0.7986108100000000 0.4529055200000000 0.3032430300000000 F
atom_frac 0.2986108100000000 0.0470944800000000 0.1967569700000000 F
atom_frac 0.2013891900000000 0.9529055200000000 0.6967569700000000 F
atom_frac 0.0620278700000000 0.2500000000000000 0.4912716200000000 K
atom_frac 0.4379721300000000 0.7499999999999998 0.9912716199999999 K
atom_frac 0.9379721299999999 0.7499999999999998 0.5087283800000000 K
atom_frac 0.5620278700000000 0.2500000000000000 0.0087283800000000 K
