#=======================================================
# FHI-aims file: geometry.in
# Created using the Atomic Simulation Environment (ASE)
# Mon Aug 12 09:38:00 2019
#=======================================================
lattice_vector 4.4196761799999997 -0.0000000000000000 0.0000000000000000 
lattice_vector -0.0000000000000000 4.4196761799999997 -0.0000000000000000 
lattice_vector 0.0000000000000000 0.0000000000000000 4.4196761799999997 
atom 2.2098380899999999 2.2098380899999999 2.2098380899999999 Ca
atom 0.0000000000000000 2.2098380899999999 2.2098380899999999 F
atom 2.2098380899999999 0.0000000000000000 2.2098380899999999 F
atom 2.2098380899999999 2.2098380899999999 -0.0000000000000000 F
atom 0.0000000000000000 0.0000000000000000 0.0000000000000000 K
