#=======================================================
# FHI-aims file: geometry.in.primitive
# Created using the Atomic Simulation Environment (ASE)
# Sun Aug 30 20:08:41 2020

# Additional information:
#  Number of atoms:     3
#=======================================================
lattice_vector 0.0000000000000000 2.5356775950000001 2.5356775950000001 
lattice_vector 2.5356775950000001 0.0000000000000000 2.5356775950000001 
lattice_vector 2.5356775950000001 2.5356775950000001 0.0000000000000000 
atom 0.0000000000000000 0.0000000000000000 0.0000000000000000 Zr
atom 1.2678387975000001 1.2678387975000001 1.2678387975000001 O
atom 3.8035163925000002 3.8035163925000002 3.8035163925000002 O
