#=======================================================
# FHI-aims file: geometry.in.supercell
# Created using the Atomic Simulation Environment (ASE)
# Sun Aug 30 20:08:41 2020

# Additional information:
#  Number of atoms:     96
#=======================================================
lattice_vector 10.1427103800000005 -0.0000000000000003 0.0000000000000000 
lattice_vector -0.0000000000000003 10.1427103800000005 0.0000000000000000 
lattice_vector 0.0000000000000003 0.0000000000000003 10.1427103800000005 
atom 0.0000000000000000 0.0000000000000000 0.0000000000000000 Zr
atom 10.1427103800000005 2.5356775949999997 2.5356775950000001 Zr
atom 10.1427103800000005 5.0713551900000002 5.0713551900000002 Zr
atom 10.1427103800000005 7.6070327850000004 7.6070327850000004 Zr
atom 2.5356775950000001 0.0000000000000000 2.5356775950000001 Zr
atom 2.5356775950000001 2.5356775950000001 5.0713551900000002 Zr
atom 2.5356775949999997 5.0713551900000002 7.6070327850000004 Zr
atom 2.5356775949999997 7.6070327850000004 0.0000000000000000 Zr
atom 5.0713551900000002 0.0000000000000000 5.0713551900000002 Zr
atom 5.0713551900000002 2.5356775950000001 7.6070327850000004 Zr
atom 5.0713551900000002 5.0713551900000002 0.0000000000000000 Zr
atom 5.0713551899999993 7.6070327850000004 2.5356775950000001 Zr
atom 7.6070327850000004 0.0000000000000000 7.6070327850000004 Zr
atom 7.6070327850000004 2.5356775950000001 0.0000000000000000 Zr
atom 7.6070327850000004 5.0713551900000002 2.5356775950000001 Zr
atom 7.6070327850000004 7.6070327850000004 5.0713551900000002 Zr
atom 2.5356775950000001 2.5356775950000001 0.0000000000000000 Zr
atom 2.5356775949999997 5.0713551900000002 2.5356775950000001 Zr
atom 2.5356775949999997 7.6070327850000004 5.0713551900000002 Zr
atom 2.5356775949999997 0.0000000000000001 7.6070327850000004 Zr
atom 5.0713551900000002 2.5356775950000001 2.5356775950000001 Zr
atom 5.0713551900000002 5.0713551900000002 5.0713551900000002 Zr
atom 5.0713551899999993 7.6070327850000004 7.6070327850000004 Zr
atom 5.0713551899999993 -0.0000000000000001 0.0000000000000000 Zr
atom 7.6070327850000004 2.5356775950000001 5.0713551900000002 Zr
atom 7.6070327850000004 5.0713551900000002 7.6070327850000004 Zr
atom 7.6070327850000004 7.6070327850000004 0.0000000000000000 Zr
atom 7.6070327849999995 -0.0000000000000001 2.5356775950000001 Zr
atom 0.0000000000000001 2.5356775950000001 7.6070327850000004 Zr
atom -0.0000000000000001 5.0713551900000002 0.0000000000000000 Zr
atom -0.0000000000000001 7.6070327850000004 2.5356775950000001 Zr
atom 0.0000000000000001 0.0000000000000001 5.0713551900000002 Zr
atom 1.2678387974999998 1.2678387974999998 1.2678387975000001 O
atom 1.2678387974999998 3.8035163925000002 3.8035163925000002 O
atom 1.2678387974999996 6.3391939874999998 6.3391939874999998 O
atom 1.2678387974999994 8.8748715825000009 8.8748715825000009 O
atom 3.8035163925000002 1.2678387974999998 3.8035163925000002 O
atom 3.8035163925000002 3.8035163925000002 6.3391939874999998 O
atom 3.8035163925000002 6.3391939874999998 8.8748715825000009 O
atom 3.8035163924999993 8.8748715825000009 1.2678387975000001 O
atom 6.3391939874999998 1.2678387974999998 6.3391939874999998 O
atom 6.3391939874999998 3.8035163925000006 8.8748715825000009 O
atom 6.3391939874999998 6.3391939874999998 1.2678387975000001 O
atom 6.3391939874999998 8.8748715825000009 3.8035163925000002 O
atom 8.8748715825000009 1.2678387974999998 8.8748715825000009 O
atom 8.8748715825000009 3.8035163924999997 1.2678387975000001 O
atom 8.8748715825000009 6.3391939874999998 3.8035163925000002 O
atom 8.8748715825000009 8.8748715825000009 6.3391939874999998 O
atom 3.8035163925000002 3.8035163925000002 1.2678387975000001 O
atom 3.8035163924999997 6.3391939874999998 3.8035163925000002 O
atom 3.8035163924999993 8.8748715825000009 6.3391939874999998 O
atom 3.8035163925000002 1.2678387975000003 8.8748715825000009 O
atom 6.3391939874999998 3.8035163925000002 3.8035163925000002 O
atom 6.3391939874999998 6.3391939874999998 6.3391939874999998 O
atom 6.3391939874999990 8.8748715825000009 8.8748715825000009 O
atom 6.3391939874999990 1.2678387974999998 1.2678387975000001 O
atom 8.8748715825000009 3.8035163924999997 6.3391939874999998 O
atom 8.8748715825000009 6.3391939874999998 8.8748715825000009 O
atom 8.8748715825000009 8.8748715825000009 1.2678387975000001 O
atom 8.8748715825000009 1.2678387974999998 3.8035163925000002 O
atom 1.2678387975000003 3.8035163925000006 8.8748715825000009 O
atom 1.2678387974999998 6.3391939874999998 1.2678387975000001 O
atom 1.2678387974999998 8.8748715825000009 3.8035163925000002 O
atom 1.2678387975000003 1.2678387975000003 6.3391939874999998 O
atom 3.8035163925000002 3.8035163925000002 3.8035163925000002 O
atom 3.8035163925000002 6.3391939874999998 6.3391939874999998 O
atom 3.8035163925000002 8.8748715825000009 8.8748715825000009 O
atom 3.8035163924999997 1.2678387975000001 1.2678387975000001 O
atom 6.3391939874999998 3.8035163925000002 6.3391939874999998 O
atom 6.3391939874999998 6.3391939874999998 8.8748715824999991 O
atom 6.3391939874999990 8.8748715825000009 1.2678387975000001 O
atom 6.3391939874999990 1.2678387974999998 3.8035163925000002 O
atom 8.8748715825000009 3.8035163925000002 8.8748715825000009 O
atom 8.8748715825000009 6.3391939874999998 1.2678387975000001 O
atom 8.8748715825000009 8.8748715825000009 3.8035163925000002 O
atom 8.8748715825000009 1.2678387975000001 6.3391939874999998 O
atom 1.2678387975000001 3.8035163925000002 1.2678387975000001 O
atom 1.2678387974999998 6.3391939874999998 3.8035163925000002 O
atom 1.2678387975000001 8.8748715825000009 6.3391939874999998 O
atom 1.2678387975000003 1.2678387975000003 8.8748715825000009 O
atom 6.3391939874999998 6.3391939874999998 3.8035163925000002 O
atom 6.3391939874999990 8.8748715824999991 6.3391939874999998 O
atom 6.3391939874999990 1.2678387975000001 8.8748715825000009 O
atom 6.3391939874999990 3.8035163925000002 1.2678387975000001 O
atom 8.8748715824999991 6.3391939874999998 6.3391939874999998 O
atom 8.8748715824999991 8.8748715824999991 8.8748715824999991 O
atom 8.8748715824999973 1.2678387974999998 1.2678387975000001 O
atom 8.8748715824999973 3.8035163924999997 3.8035163925000002 O
atom 1.2678387975000001 6.3391939874999998 8.8748715825000009 O
atom 1.2678387974999998 8.8748715824999991 1.2678387975000001 O
atom 1.2678387975000001 1.2678387975000001 3.8035163925000002 O
atom 1.2678387975000003 3.8035163925000002 6.3391939874999998 O
atom 3.8035163925000002 6.3391939874999998 1.2678387975000001 O
atom 3.8035163924999997 8.8748715824999991 3.8035163925000002 O
atom 3.8035163925000002 1.2678387975000003 6.3391939874999998 O
atom 3.8035163925000006 3.8035163925000006 8.8748715825000009 O
