#=======================================================
# FHI-aims file: geometry.in.primitive
# Created using the Atomic Simulation Environment (ASE)
# Wed Aug 26 14:19:39 2020
#=======================================================
lattice_vector 0.0000000000000000 2.5356775950000001 2.5356775950000001 
lattice_vector 2.5356775950000001 0.0000000000000000 2.5356775950000001 
lattice_vector 2.5356775950000001 2.5356775950000001 0.0000000000000000 
atom_frac 0.0000000000000000 0.0000000000000000 -0.0000000000000000 Zr
atom_frac 0.2500000000000000 0.2500000000000000 0.2500000000000000 O
atom_frac 0.7500000000000000 0.7500000000000000 0.7500000000000000 O
