#=======================================================
# FHI-aims file: ./geometry.in
# Created using the Atomic Simulation Environment (ASE)
# Sun Aug 30 19:21:25 2020
#=======================================================
lattice_vector 10.1427103800000005 -0.0000000000000003 0.0000000000000000 
lattice_vector -0.0000000000000003 10.1427103800000005 0.0000000000000000 
lattice_vector 0.0000000000000003 0.0000000000000003 10.1427103800000005 
atom_frac 0.0009859297589448 0.0000000000000000 0.0000000000000000 Zr
atom_frac 1.0000000000000000 0.2500000000000000 0.2500000000000000 Zr
atom_frac 1.0000000000000000 0.5000000000000000 0.5000000000000000 Zr
atom_frac 1.0000000000000000 0.7500000000000000 0.7500000000000000 Zr
atom_frac 0.2500000000000000 0.0000000000000000 0.2500000000000000 Zr
atom_frac 0.2499999999999999 0.2499999999999999 0.5000000000000000 Zr
atom_frac 0.2499999999999999 0.5000000000000000 0.7500000000000000 Zr
atom_frac 0.2500000000000000 0.7500000000000000 0.0000000000000000 Zr
atom_frac 0.5000000000000000 0.0000000000000000 0.5000000000000000 Zr
atom_frac 0.5000000000000000 0.2499999999999999 0.7500000000000000 Zr
atom_frac 0.5000000000000000 0.5000000000000000 0.0000000000000000 Zr
atom_frac 0.4999999999999999 0.7500000000000000 0.2500000000000000 Zr
atom_frac 0.7500000000000000 -0.0000000000000000 0.7500000000000000 Zr
atom_frac 0.7500000000000000 0.2500000000000000 0.0000000000000000 Zr
atom_frac 0.7500000000000000 0.5000000000000000 0.2500000000000000 Zr
atom_frac 0.7500000000000000 0.7500000000000000 0.5000000000000000 Zr
atom_frac 0.2500000000000000 0.2500000000000000 0.0000000000000000 Zr
atom_frac 0.2500000000000000 0.5000000000000000 0.2500000000000000 Zr
atom_frac 0.2499999999999999 0.7500000000000000 0.5000000000000000 Zr
atom_frac 0.2499999999999999 -0.0000000000000000 0.7500000000000000 Zr
atom_frac 0.5000000000000000 0.2500000000000000 0.2500000000000000 Zr
atom_frac 0.5000000000000000 0.5000000000000000 0.5000000000000000 Zr
atom_frac 0.4999999999999999 0.7500000000000000 0.7500000000000000 Zr
atom_frac 0.4999999999999999 0.0000000000000000 0.0000000000000000 Zr
atom_frac 0.7500000000000000 0.2499999999999999 0.5000000000000000 Zr
atom_frac 0.7500000000000000 0.5000000000000000 0.7500000000000000 Zr
atom_frac 0.7500000000000000 0.7500000000000000 0.0000000000000000 Zr
atom_frac 0.7500000000000000 0.0000000000000000 0.2500000000000000 Zr
atom_frac -0.0000000000000000 0.2499999999999999 0.7500000000000000 Zr
atom_frac 0.0000000000000000 0.5000000000000000 0.0000000000000000 Zr
atom_frac 0.0000000000000000 0.7500000000000000 0.2500000000000000 Zr
atom_frac 0.0000000000000000 0.0000000000000000 0.5000000000000000 Zr
atom_frac 0.1250000000000000 0.1250000000000000 0.1250000000000000 O
atom_frac 0.1250000000000000 0.3750000000000000 0.3750000000000000 O
atom_frac 0.1250000000000000 0.6250000000000000 0.6250000000000000 O
atom_frac 0.1249999999999999 0.8750000000000000 0.8750000000000000 O
atom_frac 0.3750000000000000 0.1250000000000000 0.3750000000000000 O
atom_frac 0.3750000000000000 0.3750000000000000 0.6250000000000000 O
atom_frac 0.3750000000000000 0.6250000000000000 0.8750000000000000 O
atom_frac 0.3749999999999999 0.8750000000000000 0.1250000000000000 O
atom_frac 0.6250000000000000 0.1250000000000000 0.6250000000000000 O
atom_frac 0.6250000000000000 0.3750000000000001 0.8750000000000000 O
atom_frac 0.6250000000000000 0.6250000000000000 0.1250000000000000 O
atom_frac 0.6250000000000000 0.8750000000000000 0.3750000000000000 O
atom_frac 0.8750000000000000 0.1250000000000000 0.8750000000000000 O
atom_frac 0.8750000000000000 0.3750000000000000 0.1250000000000000 O
atom_frac 0.8750000000000000 0.6250000000000000 0.3750000000000000 O
atom_frac 0.8750000000000000 0.8750000000000000 0.6250000000000000 O
atom_frac 0.3750000000000000 0.3750000000000000 0.1250000000000000 O
atom_frac 0.3750000000000000 0.6250000000000000 0.3750000000000000 O
atom_frac 0.3749999999999999 0.8750000000000000 0.6250000000000000 O
atom_frac 0.3750000000000000 0.1250000000000000 0.8750000000000000 O
atom_frac 0.6250000000000000 0.3750000000000000 0.3750000000000000 O
atom_frac 0.6250000000000000 0.6250000000000000 0.6250000000000000 O
atom_frac 0.6249999999999999 0.8750000000000000 0.8750000000000000 O
atom_frac 0.6249999999999999 0.1250000000000000 0.1250000000000000 O
atom_frac 0.8750000000000000 0.3750000000000000 0.6250000000000000 O
atom_frac 0.8750000000000000 0.6250000000000000 0.8750000000000000 O
atom_frac 0.8750000000000000 0.8750000000000000 0.1250000000000000 O
atom_frac 0.8750000000000000 0.1250000000000000 0.3750000000000000 O
atom_frac 0.1250000000000000 0.3750000000000001 0.8750000000000000 O
atom_frac 0.1250000000000000 0.6250000000000000 0.1250000000000000 O
atom_frac 0.1250000000000000 0.8750000000000000 0.3750000000000000 O
atom_frac 0.1250000000000000 0.1250000000000000 0.6250000000000000 O
atom_frac 0.3750000000000000 0.3750000000000000 0.3750000000000000 O
atom_frac 0.3750000000000000 0.6250000000000000 0.6250000000000000 O
atom_frac 0.3750000000000000 0.8750000000000000 0.8750000000000000 O
atom_frac 0.3750000000000000 0.1250000000000000 0.1250000000000000 O
atom_frac 0.6250000000000000 0.3750000000000000 0.6250000000000000 O
atom_frac 0.6250000000000000 0.6250000000000000 0.8749999999999999 O
atom_frac 0.6249999999999999 0.8750000000000000 0.1250000000000000 O
atom_frac 0.6249999999999999 0.1250000000000000 0.3750000000000000 O
atom_frac 0.8750000000000000 0.3750000000000000 0.8750000000000000 O
atom_frac 0.8750000000000000 0.6250000000000000 0.1250000000000000 O
atom_frac 0.8750000000000000 0.8750000000000000 0.3750000000000000 O
atom_frac 0.8750000000000000 0.1250000000000000 0.6250000000000000 O
atom_frac 0.1250000000000000 0.3750000000000000 0.1250000000000000 O
atom_frac 0.1250000000000000 0.6250000000000000 0.3750000000000000 O
atom_frac 0.1250000000000000 0.8750000000000000 0.6250000000000000 O
atom_frac 0.1250000000000000 0.1250000000000000 0.8750000000000000 O
atom_frac 0.6250000000000000 0.6250000000000000 0.3750000000000000 O
atom_frac 0.6249999999999999 0.8749999999999999 0.6250000000000000 O
atom_frac 0.6249999999999999 0.1250000000000000 0.8750000000000000 O
atom_frac 0.6249999999999999 0.3750000000000000 0.1250000000000000 O
atom_frac 0.8749999999999999 0.6250000000000000 0.6250000000000000 O
atom_frac 0.8749999999999999 0.8749999999999999 0.8749999999999999 O
atom_frac 0.8749999999999997 0.1250000000000000 0.1250000000000000 O
atom_frac 0.8749999999999997 0.3750000000000000 0.3750000000000000 O
atom_frac 0.1250000000000000 0.6250000000000000 0.8750000000000000 O
atom_frac 0.1250000000000000 0.8749999999999999 0.1250000000000000 O
atom_frac 0.1250000000000000 0.1250000000000000 0.3750000000000000 O
atom_frac 0.1250000000000000 0.3750000000000000 0.6250000000000000 O
atom_frac 0.3750000000000000 0.6250000000000000 0.1250000000000000 O
atom_frac 0.3750000000000000 0.8749999999999999 0.3750000000000000 O
atom_frac 0.3750000000000000 0.1250000000000000 0.6250000000000000 O
atom_frac 0.3750000000000001 0.3750000000000001 0.8750000000000000 O
