#=======================================================
# FHI-aims file: geometry.in.def
# Created using the Atomic Simulation Environment (ASE)
# Thu Dec  3 11:28:33 2020
#=======================================================
lattice_vector 12.5343931094478993 0.0000000000000000 0.0000000000000000 
lattice_vector 0.0000000000000000 17.5182186911598983 0.0000000000000000 
lattice_vector 0.0000000000000000 0.0000000000000000 12.3257421461419998 
atom 1.6305930024075419 4.0646834478656269 1.4860455408990183 F
atom 8.0298362615982697 4.0966118336212629 1.3568469377026093 F
atom 1.3947830455100840 12.8820340214926468 1.7080145858354587 F
atom 7.7015369771674358 12.7839085616046884 1.6722497101568221 F
atom 1.7391801737286856 4.1144339831983840 7.5405053449742576 F
atom 7.9164849072347039 4.0534574454939696 7.6319280919824442 F
atom 1.4744483817206500 12.7343283518801034 7.7826053960083179 F
atom 7.6124748222893182 12.9303626412591122 7.9344334445575306 F
atom 1.4654837562674101 4.6635650277272349 4.5116244738397402 F
atom 7.7293897894480708 4.0223067238895229 4.5110192168824490 F
atom 1.7073407161373666 13.4532500136639346 4.7535956203639138 F
atom 8.0101143998345208 12.8120898200612334 4.7958079208604545 F
atom 1.4774668002161233 4.0359851044968096 10.6879882918780567 F
atom 7.7192513639373184 4.6924523199152182 10.6592892702525486 F
atom 1.7266233151395600 12.8290584986829455 10.9307240839397384 F
atom 8.0336797384023289 13.4292594371333376 10.9840213080464473 F
atom 4.6729433884044598 0.3212261425514751 1.5254979852912953 F
atom 10.9576925896346395 -0.3205623025374888 1.5507620701701252 F
atom 4.8100458079604875 9.0893502002816611 1.6578448437769142 F
atom 11.0625251281532648 8.4262254773394183 1.6344922467505223 F
atom 4.6662431786617935 -0.3713728119459566 7.6847965316087734 F
atom 10.9593805415456629 0.3042837288606061 7.7187265718432219 F
atom 4.8173652325899168 8.4406375925038315 7.8178329715082784 F
atom 11.0894703000359325 9.0866046023306524 7.8136098177681124 F
atom 4.6345869976395004 8.4415386239924590 4.6939407835440949 F
atom 10.8486034629650696 8.4783770075194571 4.7433888565742413 F
atom 4.7275802289906554 17.2144550267623160 4.5867875527694997 F
atom 10.8846797324224500 17.1627083176865511 4.7027064379347054 F
atom 4.5601245159150849 8.4852702020568547 10.9383899875350359 F
atom 10.9138826237053230 8.4543896711910591 10.8374583646285583 F
atom 4.6438257110417247 17.2019932776986089 10.8260811119768494 F
atom 10.9771455090687731 17.2228579111528468 10.7735654929056821 F
atom 4.6306684843694352 4.7109774229370904 4.7056268916071966 F
atom 10.8211945074921836 4.7085539730263299 4.7714483188965122 F
atom 4.8992143707981723 13.4177771923677600 4.4152001824093388 F
atom 11.0769255749170963 13.5310169486087233 4.5019401668108170 F
atom 4.5544217166273091 4.6548723676468917 10.9529011137042573 F
atom 10.9218388379691422 4.7335032125125585 10.8399793750459512 F
atom 4.8379034410101882 13.5178614472212999 10.6425608408357775 F
atom 11.1937308420635038 13.3373223852451908 10.5547900426777446 F
atom 4.8359170839360903 4.0575770558184017 1.6645466481960676 F
atom 11.1074208103186116 4.6939742037314831 1.6770573587477360 F
atom 4.5418590060276713 12.8005936609843527 1.3707813818855346 F
atom 10.8216016440453071 13.4552290495918943 1.3872824354079831 F
atom 4.8462139512884645 4.6925530732954917 7.8427840668523219 F
atom 11.0830260374340863 4.0655709544719132 7.8146865273876145 F
atom 4.5289357514458235 13.4467608148978570 7.5159650079261962 F
atom 10.7920309420830645 12.8695047328535228 7.5268580546741140 F
atom 1.4774612333245969 8.4258978930148114 4.5270807545151523 F
atom 7.7653933861126205 9.0760784565973207 4.5432359323771063 F
atom 1.5545532136195348 17.2068416952164576 4.6296049182712267 F
atom 7.8157131185703976 17.8672463599383313 4.6248120860706354 F
atom 1.4574442187694456 9.0998642222418340 10.6746769265874821 F
atom 7.7448158584225180 8.4570594352564008 10.6912282317814018 F
atom 1.5518334912555529 17.8106138027908862 10.7824003425590984 F
atom 7.8367049943749052 17.2195979617969392 10.8113263093873684 F
atom 1.5029501821773898 0.3235840383394464 1.5982471105047236 F
atom 7.8484786599359806 0.2834805768944211 1.5224108535699585 F
atom 1.6221607177472062 9.0861662127117455 1.4899150521842834 F
atom 7.9823133409365186 9.0740233788077322 1.3989585799092465 F
atom 1.5942098229830013 0.3457096484109186 7.6644902133098141 F
atom 7.7432322498240325 0.3123804651949595 7.7940634816241277 F
atom 1.7231312991436598 9.0545073595832068 7.5518089960509718 F
atom 7.8775937090075292 9.0271995045085873 7.6534947488857785 F
atom 5.7818074396743970 2.1859925928734838 6.2072398119710268 F
atom 12.4643647543968399 2.1889291663386889 5.7272166206972024 F
atom 5.8665918402297068 10.9484932107858963 6.1410104409282624 F
atom 12.5146978370253681 10.9537386031270803 5.6919645646123369 F
atom 6.2768332081257032 2.1919177058628989 11.8952656916370696 F
atom 12.0759252866004037 2.1965110155105556 12.3478046280945257 F
atom 6.2382192025784189 10.9515599478725640 11.8669098366981558 F
atom 12.0895974235052055 10.9461088456192641 12.3719247697212822 F
atom 3.1631835149205747 6.5670860537392741 2.6270956803984258 F
atom 8.9271291507806243 6.5678619239251974 3.0621305117703366 F
atom 3.1033477809296510 15.3319904169466970 2.6437265602506890 F
atom 8.9171812242809025 15.3258588245866125 3.0718986457790320 F
atom 2.7076155825746193 6.5693612650764468 9.2522112938217500 F
atom 9.4327947644432850 6.5717601228185840 8.7926919316408600 F
atom 2.6543460484672563 15.3237573478455875 9.2393955114263413 F
atom 9.3936712190360492 15.3393369218875435 8.8733484435668775 F
atom 3.1217308043994230 2.1853443216023116 3.5324715674802563 F
atom 9.8633060246832418 2.1843535326140251 3.0861143438672900 F
atom 3.1555560867049359 10.9535852159339697 3.5285191567260537 F
atom 9.8573315208555581 10.9517748369410075 3.0800621143455409 F
atom 3.6038176869448906 2.1792912990931299 9.2531990967028399 F
atom 9.4091362526969373 2.1961032855433067 9.6982468827674158 F
atom 3.6103783198133166 10.9488331253965896 9.2516334284687680 F
atom 9.3810502098368680 10.9441548453971453 9.6153874075135679 F
atom 0.4671106946069359 6.5721964768703156 -0.0272140367976943 F
atom 6.3095731451328207 6.5710658451373201 0.4403363575118968 F
atom 0.4274703852565291 15.3321623201161774 0.0027516655195924 F
atom 6.2590574981222904 15.3288271010256931 0.4495104649040009 F
atom 0.0349398301001551 6.5714145996231501 6.6023297437556625 F
atom 6.7215736056976976 6.5607627779603783 6.1015859905067646 F
atom 0.0117614601471928 15.3253463768575351 6.6198746638999291 F
atom 6.7296077614656955 15.3384746396639127 6.1574644016733124 F
atom 0.0752617918359770 2.2526755813838522 2.9894643567565842 K
atom 6.2103328814877736 2.1556959574817580 3.1414124192737525 K
atom 0.0197325140659049 10.8968112410400444 3.0171473426020392 K
atom 6.1870398214148832 10.9978084170295087 3.1649362188814290 K
atom -0.0610215865193572 2.1647574368840070 9.3012895797099020 K
atom 6.3324054115298418 2.2417645367118180 9.1915848039318799 K
atom -0.0595834963665929 10.9735807539282266 9.3108454168456980 K
atom 6.3075258204209907 10.8727968959757213 9.2069065658479516 K
atom 3.0561908051931153 6.5710887512510121 6.2280743113520742 K
atom 9.4231324365334412 6.5689897009349503 6.1157903721114248 K
atom 3.0841025399850230 15.3535311504462317 6.1902581727015971 K
atom 9.4781955662321469 15.2635275142744078 6.1017052849121578 K
atom 3.1576104972585570 6.5496067455533913 12.2664289128771848 K
atom 9.3031415263317800 6.5930067832308925 12.4071158554202796 K
atom 3.1705169814144210 15.3044117288585344 12.2428839332433981 K
atom 9.3138523539867926 15.3704795876333904 12.3777754322395594 K
atom 3.2133744926758312 2.1853938000410542 -0.0815523858767993 K
atom 9.3574522276318302 2.1394872162946306 0.0550391888595870 K
atom 3.2196545280539399 10.9087447699205420 -0.0518341494647373 K
atom 9.3389627638947346 11.0037400161458798 0.0510577107704450 K
atom 3.0741637279701819 2.1641564396433863 6.1967626941855434 K
atom 9.4885890602690104 2.1903117449287794 6.0804613934704008 K
atom 3.0662426412170607 11.0155384856631731 6.2053332610506704 K
atom 9.4601283870382851 10.9248605724011210 6.0931021095366207 K
atom 6.2105944547750784 6.5409036600286985 3.1631083274557676 K
atom 12.6097670388495526 6.5674294771196218 3.0299485322093060 K
atom 6.2492812129915905 15.3819565325829810 3.1362004167145607 K
atom 12.5976851856515619 15.3031465825003519 3.0331475925863218 K
atom 6.3135070813725811 6.5968192492274635 9.1944684319078753 K
atom 12.4749739758483784 6.5601448236321733 9.3071389056248552 K
atom 6.3431346821632051 15.3023196320092811 9.1556002729468524 K
atom 12.4745182504290764 15.3540970730218849 9.3091500978159587 K
atom -0.0069937826065626 0.0045681515280211 0.0143107481742037 Ca
atom 6.2490443485595470 -0.0019565868921834 -0.0026431652778631 Ca
atom -0.0035537236243540 8.7590380265466319 -0.0019255430542448 Ca
atom 6.2697094615957623 8.7656873078085891 0.0179477427447982 Ca
atom -0.0167903544062787 -0.0036274464838804 6.1646852019639100 Ca
atom 6.2592574283147551 0.0055485095750805 6.1785035993957731 Ca
atom 0.0073618955051098 8.7629965104880743 6.1640486543146968 Ca
atom 6.2650214568558846 8.7557745783383076 6.1538483178768253 Ca
atom 3.1138654320241819 -0.0027921475449707 3.0758244468396936 Ca
atom 9.4010457233949545 -0.0097941465929452 3.0977883673996955 Ca
atom 3.1424651836101996 8.7596942664991921 3.0882419893325102 Ca
atom 9.3976591547787063 8.7597351651610467 3.0774509668145833 Ca
atom 3.1252134275291632 -0.0092690150319487 9.2391513394774005 Ca
atom 9.3862254738913578 0.0116934466266383 9.2529423756379643 Ca
atom 3.1305982129816052 8.7682020173663631 9.2434273469171711 Ca
atom 9.4126961490827519 8.7569049015590306 9.2372894540289749 Ca
atom 3.1512204124961580 4.3754334638771120 3.0836780211992294 Ca
atom 9.4078579012720187 4.3800976989615341 3.0773620530100949 Ca
atom 3.1304827108892890 13.1440484747280113 3.0646901234716832 Ca
atom 9.4000043449310287 13.1400553115385215 3.0762782229611827 Ca
atom 3.1490645998968909 4.3717882180614618 9.2429735737892038 Ca
atom 9.4119061980398975 4.3805473882868329 9.2481677533685200 Ca
atom 3.1368577695257218 13.1388546864664821 9.2317736129288868 Ca
atom 9.3985530593885951 13.1367257447182677 9.2461870727502955 Ca
atom 0.0012309853543608 4.3858096264818585 -0.0023181315942368 Ca
atom 6.2841309002999228 4.3808669980045485 0.0043486206352532 Ca
atom 0.0058245531148417 13.1332383672394535 -0.0038426876139817 Ca
atom 6.2664129664731041 13.1404519430541971 -0.0045809899840538 Ca
atom -0.0012903316043593 4.3839911035515442 6.1657573693014065 Ca
atom 6.2734353805860978 4.3658406784972907 6.1671864652230104 Ca
atom -0.0024985412739524 13.1398792533450646 6.1569023192446632 Ca
atom 6.2746444790189031 13.1420497948958843 6.1616873791785141 Ca
