#=======================================================
# FHI-aims file: geometry.in.def
# Created using the Atomic Simulation Environment (ASE)
# Thu Dec  3 11:29:22 2020
#=======================================================
lattice_vector 12.5343931094478993 0.0000000000000000 0.0000000000000000 
lattice_vector 0.0000000000000000 17.5182186911598983 0.0000000000000000 
lattice_vector 0.0000000000000000 0.0000000000000000 12.3257421461419998 
atom 1.6075762640613764 4.1752862745606594 1.5180444785855094 F
atom 7.8755440442560571 4.0340746617852030 1.5163750509087950 F
atom 1.8518952383883747 13.0111857969453606 1.2576906431500174 F
atom 8.0459671981053624 12.8277232145060882 1.3223015492573253 F
atom 1.6369957476963009 4.0928388946385850 7.6443796668653459 F
atom 7.9047448817091857 4.1501389904554955 7.6679907231473798 F
atom 1.8057513933305860 12.8858619429789840 7.4536069554908480 F
atom 8.0760843487777496 12.9485020923891145 7.4514173443382230 F
atom 1.5529417457628985 4.6987862846431021 4.5947017122723155 F
atom 7.8399057126342342 4.7698017001326081 4.6029542597732434 F
atom 1.2751537863973752 13.4527409512513163 4.3502184930187768 F
atom 7.5837302545137497 13.4474251474337549 4.3879661580899336 F
atom 1.5730840610693568 4.6902094486647119 10.7788849917427996 F
atom 7.8298879745861019 4.6806798129433336 10.7651224346763286 F
atom 1.3131092557134942 13.4609913673555504 10.5326481234974558 F
atom 7.6106264562184549 13.4989429215872061 10.5898254826824356 F
atom 4.8809759391282856 0.2949647187212275 1.7515653306414065 F
atom 11.1810117443725598 0.3496295419031258 1.7757334354973857 F
atom 4.4835215877061421 9.0471264386483377 1.3112869182473963 F
atom 10.7825432464564326 9.0733663478127866 1.3181740578940560 F
atom 4.9203436046308608 0.3367791278911984 7.9481461753477785 F
atom 11.1747222468738272 0.3274738656245834 7.9349571079570920 F
atom 4.5377978325956363 9.0743582146067556 7.5106003065762703 F
atom 10.7784528845857785 9.0727455089243687 7.4890848552488238 F
atom 4.9353905118108292 8.5819056458523963 4.3890321721778198 F
atom 11.2082692227222118 8.5321505313360966 4.3823123626187543 F
atom 4.4195131846751874 17.3685709991056108 4.9013619676923890 F
atom 10.7233526333625004 17.2099896171012787 4.8664630620344305 F
atom 4.9180073978336960 8.4567221978141145 10.5638871790948095 F
atom 11.1779020087121630 8.6232284932817258 10.5804768196981023 F
atom 4.4598655156196507 17.1988624294514203 11.0129567946933218 F
atom 10.7298511359315150 17.2539963573064377 11.0248804050632465 F
atom 4.6798680689371910 4.6132109558990742 4.6762035277012091 F
atom 10.9781310026238206 4.6923998649878822 4.6178332256210499 F
atom 4.4083625245006237 13.2812175012139448 4.9090419735236956 F
atom 10.6945795340535366 13.4306414992937668 4.8961747287095498 F
atom 4.6710914010318332 4.6748508328213143 10.8335974908253299 F
atom 10.9651723667676659 4.5997043899305217 10.8018720948388616 F
atom 4.4414970678342831 13.4408470597383651 11.0419051426146400 F
atom 10.7341432434264927 13.3175951101805214 11.0177994170738760 F
atom 4.7598586774517617 4.1040400803055492 1.5815275624142018 F
atom 11.0134209240297789 4.0125332594024599 1.5857147344639111 F
atom 4.9202663833749076 12.8444231651884522 1.7969454407907650 F
atom 11.2010860062637523 12.8463716344275038 1.7879630235781920 F
atom 4.7834089118453695 4.0415004696215986 7.7590673815000990 F
atom 11.0023193481161243 4.0542298002631210 7.7204572279114458 F
atom 4.9516040593783028 12.8431002549094124 7.9745163089640565 F
atom 11.1891673341975828 12.8436935000575332 7.9448298107451825 F
atom 1.7973827552186770 8.4701961532043430 4.8344806000997966 F
atom 8.0400482912826625 8.4272648006290058 4.7975308701787558 F
atom 1.3104093413160993 17.1933626747349138 4.3867945109208959 F
atom 7.5877867802302514 17.1762986568823450 4.3858889921485256 F
atom 1.7352403803449474 8.3961824426013685 10.9319354891854346 F
atom 8.0512693574526075 8.5199418970978851 10.9853909155773177 F
atom 1.3293444694687018 17.1858046898455541 10.5644201474804813 F
atom 7.6151212315779553 17.1857122200195924 10.5787054406974796 F
atom 1.7821010567043520 0.2135493230288891 1.3185704499617994 F
atom 8.0053234271535114 0.3602942956921189 1.3533191748681079 F
atom 1.3578079235762675 8.8914053234950714 1.7546788557714881 F
atom 7.6358007776878098 9.0800861206131014 1.7294855223697190 F
atom 1.7619801511099440 0.2783763630504703 7.4942141379845806 F
atom 8.0436015643837475 0.1969011445746266 7.4858615611949997 F
atom 1.3957487771282759 9.0243153191761127 7.8837767416487452 F
atom 7.6507447115348235 8.9285177909678595 7.8939306706012085 F
atom 6.3267446332883468 2.1934521110843432 5.7717910628897604 F
atom 12.4781868906305942 2.1835542903729817 5.7553494641773311 F
atom 6.3685994116893969 10.9403943969872408 5.8031358060375995 F
atom 12.5694288300652435 10.9539638781386870 5.7931486386332294 F
atom 6.1862488258872936 2.1897461510935790 11.8757285539706920 F
atom 12.5562437867651120 2.1746073799657197 11.9226364155914837 F
atom 6.2044022750954451 10.9619707617008189 11.9037983157961840 F
atom 12.6861538093792561 10.9554806337508097 12.0410003957502809 F
atom 3.2021830182143098 6.5670795396511448 2.7105095863220550 F
atom 9.4008789976645986 6.5663943972158085 2.6029547461838121 F
atom 3.3210770411468453 15.3364183547090303 2.8186746697837508 F
atom 9.5122770713237621 15.3440882560197895 2.6573318600969547 F
atom 3.1550357613046884 6.5628100670562723 8.8100172263363117 F
atom 9.4981414333698684 6.5775783741531164 8.9004086418440078 F
atom 3.2841155872082775 15.3305788478843503 8.8117987041503305 F
atom 9.5511891167753671 15.3315321743830104 8.8492560829263791 F
atom 3.0307066325294514 2.1903986832064519 3.4380946790849296 F
atom 9.3384355730635171 2.1980014194633837 3.5713904123334883 F
atom 2.9805445452413779 10.9491168906808696 3.4217652060964943 F
atom 9.3926142237108685 10.9456357041292787 3.5013381924549529 F
atom 3.0247508103557781 2.1851652191562185 9.6363169267693554 F
atom 9.3106037743327992 2.1820650382911881 9.6333973050473745 F
atom 3.0973432420084888 10.9472106011943833 9.6549523176588110 F
atom 9.2745146105474721 10.9576158454698458 9.5852004441790424 F
atom -0.1172613073019185 6.5550984396905632 0.3547680291110431 F
atom 6.2914850026864411 6.5770807221018162 0.3914226014940380 F
atom 0.0032742641995686 15.3406147160386421 0.4135858710298136 F
atom 6.3554131889148966 15.3398627105833967 0.4509938064295322 F
atom -0.0682796796237325 6.5691286097464925 6.5574466893536014 F
atom 6.1488925081108574 6.5647589758655283 6.5376140792216546 F
atom 0.1012887669422851 15.3306621647552213 6.5830605347475872 F
atom 6.2440962816127437 15.3322849034177739 6.5390018911130969 F
atom 0.0405768906132558 2.2160463716424763 3.0708661020839596 K
atom 6.3726461534610319 2.1633129150574621 3.0584649315956400 K
atom 0.0033730477942743 10.8957399586181367 3.0560401969325950 K
atom 6.3014258128259026 10.9314941143206923 3.0850826312265696 K
atom 0.0782593169758838 2.2010961813250631 9.2043774557606461 K
atom 6.3308022281446181 2.2002679917527965 9.1961684461152835 K
atom 0.0332420847444751 10.9405084137757527 9.2139302731220578 K
atom 6.2467911679079409 10.8924384646555907 9.2293719086774821 K
atom 3.1745366756168290 6.5423807611183955 6.1593552618607257 K
atom 9.4840908794034195 6.5501706893658369 6.1854745851111126 K
atom 3.0027652339641375 15.3226904165490829 6.1261610271183633 K
atom 9.2180376690773880 15.3265884929325455 6.1598775955347831 K
atom 3.1879236093196637 6.5255136584375695 12.3350865105923759 K
atom 9.4504923651177553 6.5791887888779135 12.2898320974414936 K
atom 3.0061823422636502 15.3393239236970285 12.3238456296943468 K
atom 9.2456528032191567 15.3188827050240466 12.2828172297503109 K
atom 3.1881012432106215 2.1725217143625590 0.0258959608000308 K
atom 9.4729675655975250 2.1911768620925436 -0.0075979518838291 K
atom 3.1574313549013833 11.0301506520246200 0.0311273784237456 K
atom 9.4100198960728481 10.9327746986690588 -0.0190062513001401 K
atom 3.2061904440249278 2.1995863741059427 6.1836417471101388 K
atom 9.5100119807973300 2.1642742535462767 6.2229500674732510 K
atom 3.1386527777113185 10.9275393155013543 6.1160044162208633 K
atom 9.4028583026619490 10.9644516479458591 6.1508725870141694 K
atom 6.3192008492649157 6.5822581814378029 3.1091366102427642 K
atom 12.5997815497419179 6.5531972775246619 3.0625000043822941 K
atom 6.1673526448778189 15.3083131935475762 3.0987574984796260 K
atom 12.3496527288821376 15.3564881633180370 3.1042191384683204 K
atom 6.2806037710976854 6.5631581654057500 9.2469286526868544 K
atom 12.5725007291183672 6.6209320439839487 9.2879158261946753 K
atom 6.1063993236336271 15.3232574269974098 9.2426457116325622 K
atom 12.3746821840826815 15.3173365056013502 9.2688448832881321 K
atom -0.0124977285689665 -0.0075450214347788 0.0031487374422865 Ca
atom 6.2454268289755577 0.0018974369036769 -0.0009519345139418 Ca
atom 0.0240229481061300 8.7554121244419179 -0.0051227724633485 Ca
atom 6.2683704478241724 8.7666485777601579 -0.0084235226683823 Ca
atom -0.0104668522698032 -0.0090877764985774 6.1674193838754103 Ca
atom 6.2448977575603388 0.0055099290602480 6.1654367340951355 Ca
atom 0.0128284708537021 8.7613408216987665 6.1560105468534712 Ca
atom 6.2858801302625738 8.7400742867528827 6.1544190312443234 Ca
atom 3.1088561001026682 0.0043327919273319 3.0972786242046362 Ca
atom 9.3877412199216757 0.0174434493216630 3.0911274645254885 Ca
atom 3.1396876583649473 8.7563578802480055 3.0726724604928988 Ca
atom 9.4149188765609271 8.7568024154676589 3.0601552831333394 Ca
atom 3.1132518831759617 -0.0101335420092418 9.2489732799384790 Ca
atom 9.3916274002997060 -0.0096579138480338 9.2540928940882416 Ca
atom 3.1490446337826015 8.7475522971451518 9.2322697446888320 Ca
atom 9.4074427164718415 8.7748824163558616 9.2341967974813315 Ca
atom 3.1562333657564925 4.3797626854912926 3.0901906464981157 Ca
atom 9.4131386744375138 4.3841380266455952 3.0859569757668814 Ca
atom 3.1032013201847466 13.1506915387287187 3.0929821438889822 Ca
atom 9.3957315030673865 13.1463292220972932 3.0858209165508526 Ca
atom 3.1497445814624534 4.3748461524630926 9.2524335508921318 Ca
atom 9.4265026325343015 4.3730874647064573 9.2513510426125585 Ca
atom 3.1200648631458918 13.1486719947539026 9.2367942163770405 Ca
atom 9.3763669304377881 13.1467392209726270 9.2422276217828383 Ca
atom 0.0085182981407167 4.3606077150711631 -0.0020220367721365 Ca
atom 6.2874279431431450 4.3766935163141545 0.0020681072362327 Ca
atom -0.0036248883297301 13.1553457334232071 0.0063260135028701 Ca
atom 6.2439267579869808 13.1549785475772758 0.0100972880726920 Ca
atom 0.0153553068660236 4.3815870710500704 6.1550006398401100 Ca
atom 6.3074721579453081 4.3792104963903986 6.1613436198329072 Ca
atom -0.0150449247456410 13.1451832640881943 6.1601776406635240 Ca
atom 6.2522920671975646 13.1278699940842642 6.1738434741886552 Ca
