#=======================================================
# FHI-aims file: geometry.in.def
# Created using the Atomic Simulation Environment (ASE)
# Thu Dec  3 11:07:50 2020
#=======================================================
lattice_vector 12.5343931094478993 0.0000000000000000 0.0000000000000000 
lattice_vector 0.0000000000000000 17.5182186911598983 0.0000000000000000 
lattice_vector 0.0000000000000000 0.0000000000000000 12.3257421461419998 
atom 1.7760048587000310 4.0623278404023351 1.3258011306839608 F
atom 8.0546910660406787 4.0899390937353681 1.3224541686388680 F
atom 1.7590815712690797 12.8497029705619852 1.3471528046730838 F
atom 8.0390161230331341 12.8534128765518005 1.3325872947293367 F
atom 1.7831884077021272 4.0780606956210050 7.4837728767225560 F
atom 8.0455482870405763 4.0677600804979264 7.4870185442474648 F
atom 1.7650821847048843 12.8547127971301371 7.5087741533568249 F
atom 8.0258780201684221 12.8363511405982216 7.5147809527093141 F
atom 1.3501657738699662 4.1692239394621948 4.4044185984260125 F
atom 7.6174729784740336 4.1095566377089003 4.4056409297071450 F
atom 1.3902010790121144 12.9204809473185680 4.4396624786006003 F
atom 7.6585392350744161 12.8644784760804889 4.4374549252246425 F
atom 1.3477836823097091 4.1185216960255886 10.5692664126574893 F
atom 7.6158572496880694 4.1402395713168456 10.5690737729567417 F
atom 1.3764448701962491 12.8817586655149672 10.5866602965279739 F
atom 7.6356894539385554 12.9062056039166535 10.5843729359089060 F
atom 4.9247087181967233 -0.2194641529641089 1.7643613950417185 F
atom 11.1974015190463181 -0.2755999299437701 1.7717023311596529 F
atom 4.9264442140254570 8.5224033672932862 1.7736371148828649 F
atom 11.1794629568943424 8.4870470743081921 1.7586213063210105 F
atom 4.9398843437596778 -0.2519643142549828 7.9401821115778528 F
atom 11.2061457537882774 -0.2243063838076148 7.9351067119386451 F
atom 4.9128213992095962 8.5041549756693975 7.9192631335637609 F
atom 11.1831277806217262 8.5393736002108422 7.9288082383083633 F
atom 4.4856776421535676 8.4466202125080816 4.8330767197705997 F
atom 10.7417553460649469 8.4614361934021307 4.8483433561331628 F
atom 4.4784853268114029 17.2063504930145434 4.8512468184624167 F
atom 10.7375816878670047 17.2308327794519691 4.8568613650730903 F
atom 4.4660157527107858 8.4630287098176051 11.0223205962343904 F
atom 10.7435221901315057 8.4518135490261024 11.0080869472445784 F
atom 4.4756481429634229 17.2281536881988337 11.0130579840950951 F
atom 10.7502726551894643 17.2072345848907915 11.0063375721641457 F
atom 4.4923900615510659 4.6971858124427550 4.8296557413487529 F
atom 10.7471283269638853 4.6829385830472061 4.8456367097914974 F
atom 4.5326612369838575 13.4235453621975278 4.7959371473677459 F
atom 10.7887768313104981 13.4353862197346015 4.8066443499643094 F
atom 4.4829913929558716 4.6743793569925138 11.0041795741639490 F
atom 10.7393705522882428 4.6860515651841279 11.0115810289062903 F
atom 4.5061358677636321 13.4420536017676380 10.9792522944088926 F
atom 10.7839472577811755 13.4370890551361519 10.9706098453145380 F
atom 4.9156469058202523 4.6074890935774384 1.7565765825896213 F
atom 11.1861194197242355 4.6553263925064359 1.7661688109950244 F
atom 4.8990677623738232 13.3608037374412181 1.7355557598906388 F
atom 11.1659860537146276 13.4060964177848554 1.7316514990655256 F
atom 4.9156117167562110 4.6321799374831354 7.9154260612642116 F
atom 11.1807637810132832 4.6050588155257186 7.9221558299723265 F
atom 4.8887347398235041 13.4089130689768385 7.8854629242271983 F
atom 11.1622472557884116 13.3700310203911101 7.8989985266117850 F
atom 1.3412044890787309 8.9622346389246328 4.3968413040461654 F
atom 7.6193753182489310 9.0342972944514752 4.4102577160190304 F
atom 1.3385474948380460 17.7432043056851185 4.3913021473658764 F
atom 7.6083136265377682 17.7789613980041992 4.3903882474172828 F
atom 1.3361423503452703 9.0203738999389671 10.5504281957432884 F
atom 7.6083939041536075 8.9954821642292746 10.5673035440823853 F
atom 1.3438107403250359 17.7911999212999774 10.5586245487504016 F
atom 7.6182505134357621 17.7500920584473292 10.5603769939567300 F
atom 1.7889541676587886 0.3160578972333846 1.3166702509756798 F
atom 8.0735849393333119 0.2977399265979552 1.3004471562366167 F
atom 1.7832032263206707 9.0749479193941784 1.3174115686696271 F
atom 8.0498801577582118 9.0556345489578796 1.3199537537208739 F
atom 1.8080165856970489 0.3046382270468735 7.4641258690085870 F
atom 8.0639072564494469 0.2988944034182413 7.4756200788433542 F
atom 1.8023968693679435 9.0537217775380725 7.4693993848349596 F
atom 8.0466391976335085 9.0526876409515786 7.4906439333291672 F
atom 5.8551730684009682 2.1888816218473868 6.2054194716061897 F
atom 12.1450830219929014 2.1932355117615892 6.1910149015691474 F
atom 5.8775050760837528 10.9464203234711075 6.2319909340411694 F
atom 12.1607915841201102 10.9499665588033324 6.2017916448440396 F
atom 5.8940331402218531 2.1934037285956962 12.3596095098596628 F
atom 12.1121484773579944 2.1889858692564363 12.3931068757876659 F
atom 5.8804283783756111 10.9459334193371198 12.3662521580978844 F
atom 12.1453747457854551 10.9505058991213247 12.3897144177470206 F
atom 2.7599637574773523 6.5703891852144638 2.9167518123863467 F
atom 8.9996206632698303 6.5675317112320881 2.9823256893473342 F
atom 2.7882366982631344 15.3312902798805109 2.9479255965580218 F
atom 9.0127316431237077 15.3292356199839208 2.9813437933395566 F
atom 2.7682855744390453 6.5737219544229903 9.1457234470093862 F
atom 9.0318946241398415 6.5645759019575882 9.1160975229733801 F
atom 2.7448163187608516 15.3349829682367353 9.1334227919858542 F
atom 9.0390523249820163 15.3282912609851589 9.1157503864876528 F
atom 3.4874763077523343 2.1939295951073006 3.2363390982835885 F
atom 9.7850946368716372 2.1922178535984647 3.1883981282749807 F
atom 3.4822601014770420 10.9436634967974360 3.2233024310560330 F
atom 9.8027848288635493 10.9497969579591778 3.1717878620024504 F
atom 3.5166948207525319 2.1931289769812410 9.3628802861069147 F
atom 9.7776191083271478 2.1879499921615913 9.3846649508354645 F
atom 3.5335607918115488 10.9539254947779288 9.3474031771490349 F
atom 9.7702513461304026 10.9478442532957647 9.3873847710686231 F
atom 0.4028664094189652 6.5700101631147731 -0.0574589103537072 F
atom 6.6544600136032237 6.5692167654560638 -0.0370491700725760 F
atom 0.4064312866332800 15.3315293375188979 -0.0730437509186100 F
atom 6.6373374722030496 15.3311952099230204 -0.0456584551432710 F
atom 0.3740886871457543 6.5684555886905054 6.1525990876606587 F
atom 6.6755832191563202 6.5681630191752758 6.1025636942939414 F
atom 0.3814308734059584 15.3312567313609271 6.1260638639476754 F
atom 6.6654137324752645 15.3243811013283100 6.0896333205381676 F
atom 0.0369303184897468 2.1972803925684454 2.9592773285847649 K
atom 6.2950481333332631 2.1926595397060122 2.9864523175091353 K
atom 0.0154476991867457 10.9436154214023134 2.9723751619519794 K
atom 6.2822252428483063 10.9504742340497234 2.9883022928741405 K
atom 0.0215654807391227 2.1919001625624244 9.1417455595106638 K
atom 6.2890851624685054 2.1852816603738274 9.1359822489756013 K
atom 0.0058091868655243 10.9556788058420249 9.1429989895835018 K
atom 6.2801092078625649 10.9501436157308785 9.1286779605328618 K
atom 3.1304701558540522 6.5808954653344749 6.2724473933015119 K
atom 9.3907330860269660 6.5694867628419180 6.2491615545144654 K
atom 3.1261682208719055 15.3234086212079230 6.2706502753091957 K
atom 9.4026482650311412 15.3262459710013328 6.2449349256740225 K
atom 3.1320071799899472 6.5508064597512083 12.4211270339488102 K
atom 9.3889965211028432 6.5554779616103005 12.4345902089012981 K
atom 3.1434179812201806 15.3354016457326079 12.4227776694155416 K
atom 9.3944091305662205 15.3330575194735221 12.4352202894172041 K
atom 3.1338771568244459 2.1858969383895785 -0.1216098935480899 K
atom 9.3910308433454475 2.1932812735991378 -0.1065826068545180 K
atom 3.1225772289474274 10.9479604212281814 -0.1003270574204224 K
atom 9.3863352678032133 10.9398497961516803 -0.0930149668231632 K
atom 3.1306075405189433 2.1981990366457951 6.0665567651704739 K
atom 9.4116527867174167 2.1818046076192794 6.0550267946685041 K
atom 3.1269742769079034 10.9599011809676572 6.0632712546109877 K
atom 9.3994016272429146 10.9371450800776842 6.0560653301206173 K
atom 6.2452458741507524 6.5758602779776680 3.1909781032837308 K
atom 12.5252627390947797 6.5682049204608974 3.1804600539399615 K
atom 6.2263286700316831 15.3287657193355411 3.2066027196451685 K
atom 12.5283430064787051 15.3157777230402505 3.1928175958259630 K
atom 6.2497058756345227 6.5416466599615184 9.3472340391864392 K
atom 12.5005712298194407 6.5826338436191163 9.3646281852493960 K
atom 6.2595725604855534 15.3265977521098780 9.3551552778307396 K
atom 12.5126239203767309 15.3270848328540357 9.3632434932975102 K
atom -0.0039270309854029 -0.0004990663714723 0.0016412836267013 Ca
atom 6.2675433107521030 0.0040396074185271 -0.0006551436710347 Ca
atom -0.0032974604474042 8.7591268526332442 -0.0015587620795430 Ca
atom 6.2622016982333859 8.7568894734898777 0.0025193083998252 Ca
atom 0.0040414515982004 0.0028540600879076 6.1621955944195115 Ca
atom 6.2680096542070709 -0.0018657878345002 6.1615712684768429 Ca
atom 0.0008511590582510 8.7546217114994889 6.1662984974148092 Ca
atom 6.2641991594753037 8.7579989903078825 6.1644513894338049 Ca
atom 3.1350005523192639 0.0059565598839313 3.0840329018619408 Ca
atom 9.4057455765200206 0.0013238511619642 3.0796837143053808 Ca
atom 3.1296149104637663 8.7553305018088246 3.0769023723402422 Ca
atom 9.3982295654123487 8.7569411084238098 3.0809481791411693 Ca
atom 3.1378261281577755 0.0039511903640511 9.2406817188647370 Ca
atom 9.4090868897267672 -0.0020876635368617 9.2415151785293475 Ca
atom 3.1370557689034886 8.7649251907237158 9.2455913739021351 Ca
atom 9.3956499532676094 8.7556953144512750 9.2498490810963716 Ca
atom 3.1356659349525660 4.3823286678102509 3.0801062558917156 Ca
atom 9.4008089528869228 4.3800660053871479 3.0859734755292636 Ca
atom 3.1376057615469275 13.1361254639528724 3.0788616850882726 Ca
atom 9.4061524144828468 13.1411548720704090 3.0752382622265810 Ca
atom 3.1305811768521115 4.3812329514114889 9.2414486201121200 Ca
atom 9.4006240891376631 4.3754232764767123 9.2434645834484002 Ca
atom 3.1354081781027339 13.1441554214183576 9.2419197632555203 Ca
atom 9.4035439111856967 13.1387258307389487 9.2452665097144209 Ca
atom -0.0082130362896502 4.3780189761390540 0.0014086683030448 Ca
atom 6.2678507726222685 4.3802834712652379 0.0051968931647780 Ca
atom 0.0004493500059053 13.1437817152722634 -0.0037467288611167 Ca
atom 6.2660464065158887 13.1384168504611463 -0.0013612539065541 Ca
atom -0.0031366536035343 4.3827386024028572 6.1642581112807111 Ca
atom 6.2671190547824169 4.3767046837393533 6.1581352350329794 Ca
atom 0.0022066745109672 13.1440334287644660 6.1666844584395291 Ca
atom 6.2736067256261636 13.1331771774084487 6.1622551269438111 Ca
