# 
# This is the geometry file that corresponds to the current relaxation step.
# If you do not want this file to be written, set the "write_restart_geometry" flag to .false.
#  aims_uuid : 04C1838A-D379-4832-A517-AA5776E346B0                                
# 
lattice_vector     -0.00000004      2.71452547      2.71452547
lattice_vector      2.71452552      0.00000002      2.71452550
lattice_vector      2.71452552      2.71452550      0.00000002
atom_frac       0.00000000     -0.00000000     -0.00000000 Si
atom_frac       0.25000000      0.25000000      0.25000000 Si
# 
# What follows is the current estimated Hessian matrix constructed by the BFGS algorithm.
# This is NOT the true Hessian matrix of the system.
# If you do not want this information here, switch it off using the "hessian_to_restart_geometry" keyword.
# 
trust_radius             0.4000000060
hessian_block                1       1          16.202962          -0.000000          -0.000000          -0.000000          16.202962           0.000000          -0.000000           0.000000          16.202962
hessian_block                1       2         -14.202962           0.000000           0.000000           0.000000         -14.202962          -0.000000           0.000000          -0.000000         -14.202962
hessian_block                2       2          16.202962          -0.000000          -0.000000          -0.000000          16.202962           0.000000          -0.000000           0.000000          16.202962
hessian_block_lv             1       1          20.914474          -5.838908          -5.838908          -5.838908          20.914476          -9.236658          -5.838908          -9.236658          20.914476
hessian_block_lv             1       2           1.698876          -1.698875          -1.698875          -1.698875           1.698874           1.698874           1.698874          -1.698873          -1.698873
hessian_block_lv             1       3           1.698876          -1.698875          -1.698875           1.698874          -1.698873          -1.698873          -1.698874           1.698874           1.698874
hessian_block_lv             2       2          20.914475          -5.838910          -9.236657          -5.838910          20.914478          -5.838912          -9.236657          -5.838912          20.914480
hessian_block_lv             2       3          -1.698875           1.698874          -1.698873          -1.698873           1.698872          -1.698871           1.698874          -1.698872           1.698872
hessian_block_lv             3       3          20.914476          -9.236657          -5.838910          -9.236657          20.914480          -5.838912          -5.838910          -5.838912          20.914478
hessian_block_lv_atom        1       1          -0.000002           0.000002           0.000002           0.000001          -0.000001          -0.000001           0.000001          -0.000001          -0.000001
hessian_block_lv_atom        1       2           0.000002          -0.000002          -0.000002          -0.000001           0.000001           0.000001          -0.000001           0.000001           0.000001
hessian_block_lv_atom        2       1           0.000002          -0.000002           0.000002          -0.000001           0.000001          -0.000001          -0.000001           0.000001          -0.000001
hessian_block_lv_atom        2       2          -0.000002           0.000002          -0.000002           0.000001          -0.000001           0.000001           0.000001          -0.000001           0.000001
hessian_block_lv_atom        3       1           0.000002           0.000002          -0.000002          -0.000001          -0.000001           0.000001          -0.000001          -0.000001           0.000001
hessian_block_lv_atom        3       2          -0.000002          -0.000002           0.000002           0.000001           0.000001          -0.000001           0.000001           0.000001          -0.000001
